
c turning on binary mode checking

c parsing input formula with 3656 variables and 23914 clauses

c finished parsing, read 92946 bytes from proof file

c detected empty clause; start verification via backward checking

c 39 of 23914 clauses in core                            

c 2 of 1809 lemmas in core using 41 resolution steps

c 0 RAT lemmas in core; 0 redundant literals in core lemmas

s VERIFIED

c verification time: 0.057 seconds
